NAME : G100_3133_01
COMMENT : Generated CVRP instance (n=100)
TYPE : CVRP
DIMENSION : 101
EDGE_WEIGHT_TYPE : EUC_2D
CAPACITY : 80
NODE_COORD_SECTION
1    0    0   
2    241  675 
3    351  684 
4    695  347 
5    960  721 
6    756  708 
7    920  657 
8    838  878 
9    42   96  
10   170  681 
11   246  310 
12   562  970 
13   160  432 
14   411  526 
15   573  933 
16   293  113 
17   780  402 
18   710  740 
19   353  905 
20   292  492 
21   254  984 
22   772  208 
23   251  439 
24   3    337 
25   786  197 
26   124  254 
27   174  84  
28   685  590 
29   867  618 
30   488  469 
31   726  444 
32   276  909 
33   997  175 
34   218  336 
35   72   648 
36   651  450 
37   530  32  
38   790  766 
39   970  843 
40   30   102 
41   13   992 
42   516  69  
43   434  683 
44   484  268 
45   1    873 
46   534  180 
47   45   626 
48   64   93  
49   206  796 
50   916  425 
51   172  62  
52   534  637 
53   356  258 
54   51   113 
55   872  577 
56   871  731 
57   742  632 
58   85   554 
59   274  579 
60   874  348 
61   956  247 
62   974  636 
63   736  725 
64   294  157 
65   717  895 
66   391  901 
67   197  770 
68   217  346 
69   333  951 
70   107  678 
71   455  986 
72   42   30  
73   918  274 
74   467  423 
75   271  322 
76   680  350 
77   955  353 
78   173  982 
79   705  806 
80   912  55  
81   576  771 
82   734  460 
83   840  533 
84   515  940 
85   175  463 
86   698  22  
87   785  90  
88   388  253 
89   783  947 
90   957  690 
91   330  760 
92   75   287 
93   399  740 
94   611  611 
95   604  453 
96   432  563 
97   297  311 
98   251  149 
99   205  335 
100  764  33  
101  364  416 
DEMAND_SECTION
1    0   
2    6   
3    6   
4    7   
5    6   
6    6   
7    5   
8    5   
9    9   
10   8   
11   10  
12   6   
13   10  
14   10  
15   9   
16   5   
17   10  
18   8   
19   9   
20   5   
21   6   
22   8   
23   7   
24   7   
25   10  
26   5   
27   10  
28   9   
29   6   
30   9   
31   7   
32   9   
33   5   
34   8   
35   8   
36   10  
37   8   
38   6   
39   10  
40   10  
41   9   
42   7   
43   10  
44   7   
45   7   
46   10  
47   6   
48   8   
49   6   
50   10  
51   9   
52   9   
53   10  
54   9   
55   9   
56   8   
57   9   
58   6   
59   10  
60   9   
61   9   
62   7   
63   8   
64   7   
65   6   
66   8   
67   6   
68   8   
69   6   
70   8   
71   6   
72   10  
73   6   
74   8   
75   9   
76   10  
77   6   
78   5   
79   6   
80   9   
81   9   
82   8   
83   7   
84   10  
85   6   
86   5   
87   8   
88   10  
89   9   
90   8   
91   6   
92   6   
93   5   
94   6   
95   6   
96   7   
97   6   
98   6   
99   9   
100  7   
101  7   
DEPOT_SECTION
1
-1
EOF
